experiment/data/lkh-res/Vrp-Set-X-n181/Vrp-Set-X-n181-lkh/0.lkh1.vrp
NAME : 0
COMMENT : CVRP Instance
TYPE : CVRP
DIMENSION : 181
EDGE_WEIGHT_TYPE : EUC_2D
CAPACITY : 8
NODE_COORD_SECTION
1	89400	51000
2	46300	88700
3	70400	17700
4	42400	36800
5	42000	80000
6	49200	61000
7	60700	74900
8	45500	81900
9	34300	45700
10	38700	27500
11	46600	65300
12	60700	34800
13	42800	54600
14	76400	84800
15	40300	29800
16	31500	73800
17	45700	90200
18	59700	58400
19	21900	55200
20	52600	35900
21	41400	34000
22	39800	40100
23	57900	78000
24	51800	56300
25	53100	59700
26	50100	82700
27	68700	20000
28	67000	23400
29	48800	98100
30	67300	22200
31	35900	25600
32	53700	67500
33	78800	9500
34	43300	82000
35	39700	77000
36	44400	79900
37	36700	28800
38	25300	77400
39	57000	85300
40	37900	84300
41	38800	73600
42	56500	78500
43	60800	19300
44	43000	65700
45	77500	14200
46	72100	60000
47	43400	87600
48	68300	31100
49	59200	74000
50	50000	31500
51	42800	91500
52	71000	25800
53	70900	27200
54	42600	80300
55	40900	63900
56	53500	57200
57	50200	91600
58	52800	72800
59	35100	37100
60	65700	78200
61	49300	26500
62	75100	11200
63	46900	59400
64	72000	16500
65	46300	62400
66	75100	9600
67	49600	83300
68	56500	45900
69	47100	36100
70	44800	96900
71	36100	55900
72	52900	58200
73	51500	80900
74	49700	43400
75	42900	87900
76	48300	71500
77	26400	57400
78	79300	91600
79	44800	38600
80	32500	19900
81	32700	37000
82	48400	86100
83	43200	87300
84	41200	85300
85	64100	15500
86	71200	16300
87	45600	61200
88	30100	92100
89	48000	40000
90	70000	16500
91	69000	21300
92	47800	81100
93	66500	5600
94	43000	36800
95	41400	94300
96	70900	23500
97	29600	29700
98	38000	77300
99	45900	42300
100	49800	91000
101	46400	93900
102	67700	70400
103	42000	38100
104	39800	87200
105	55400	51200
106	48600	61400
107	58400	80900
108	42900	33600
109	46100	52900
110	47000	36000
111	49400	76900
112	40700	66100
113	68700	71100
114	45400	74500
115	59300	47100
116	53700	64800
117	66600	11100
118	45200	79700
119	43000	74200
120	48100	95800
121	63600	74100
122	40500	57600
123	66600	23400
124	60300	68300
125	47300	46600
126	37800	86700
127	61100	73900
128	34200	68800
129	44600	28000
130	58500	88800
131	49600	41800
132	71100	2700
133	79100	19800
134	66000	82800
135	41400	83900
136	50400	59200
137	66500	92100
138	44800	32000
139	55000	63700
140	63700	75800
141	74300	16600
142	50400	86900
143	70800	43200
144	66400	34300
145	49900	49300
146	87800	70600
147	39600	92000
148	27500	92400
149	72700	66900
150	72800	20300
151	36700	73900
152	44400	80800
153	75500	30300
154	44500	86400
155	56100	84800
156	59700	66000
157	38600	70000
158	65200	24000
159	34400	30100
160	20900	36900
161	57100	81200
162	45400	35300
163	49700	78100
164	69700	22000
165	29600	78700
166	51700	50600
167	40900	89300
168	33900	88600
169	51800	78800
170	71900	9900
171	60700	65400
172	21800	31200
173	53300	84700
174	52300	93800
175	59800	70500
176	48100	77200
177	46100	43100
178	37500	72200
179	46000	68100
180	52400	61000
181	77100	75200
DEMAND_SECTION
1	0
2	1
3	1
4	1
5	1
6	1
7	1
8	1
9	1
10	1
11	1
12	1
13	1
14	1
15	1
16	1
17	1
18	1
19	1
20	1
21	1
22	1
23	1
24	1
25	1
26	1
27	1
28	1
29	1
30	1
31	1
32	1
33	1
34	1
35	1
36	1
37	1
38	1
39	1
40	1
41	1
42	1
43	1
44	1
45	1
46	1
47	1
48	1
49	1
50	1
51	1
52	1
53	1
54	1
55	1
56	1
57	1
58	1
59	1
60	1
61	1
62	1
63	1
64	1
65	1
66	1
67	1
68	1
69	1
70	1
71	1
72	1
73	1
74	1
75	1
76	1
77	1
78	1
79	1
80	1
81	1
82	1
83	1
84	1
85	1
86	1
87	1
88	1
89	1
90	1
91	1
92	1
93	1
94	1
95	1
96	1
97	1
98	1
99	1
100	1
101	1
102	1
103	1
104	1
105	1
106	1
107	1
108	1
109	1
110	1
111	1
112	1
113	1
114	1
115	1
116	1
117	1
118	1
119	1
120	1
121	1
122	1
123	1
124	1
125	1
126	1
127	1
128	1
129	1
130	1
131	1
132	1
133	1
134	1
135	1
136	1
137	1
138	1
139	1
140	1
141	1
142	1
143	1
144	1
145	1
146	1
147	1
148	1
149	1
150	1
151	1
152	1
153	1
154	1
155	1
156	1
157	1
158	1
159	1
160	1
161	1
162	1
163	1
164	1
165	1
166	1
167	1
168	1
169	1
170	1
171	1
172	1
173	1
174	1
175	1
176	1
177	1
178	1
179	1
180	1
181	1
DEPOT_SECTION
1
-1
EOF
