experiment/data/lkh-res/Vrp-Set-X-n181/Vrp-Set-X-n181-lkh/0.lkh1.log
PARAMETER_FILE = baseline_results/cvrp_lkh/Vrp-Set-X-n181/Vrp-Set-X-n181-lkh/0.lkh1.par
Reading PROBLEM_FILE: "baseline_results/cvrp_lkh/Vrp-Set-X-n181/Vrp-Set-X-n181-lkh/0.lkh1.vrp" ... done
ASCENT_CANDIDATES = 50
BACKBONE_TRIALS = 0
BACKTRACKING = NO
# BWTSP =
# CANDIDATE_FILE =
CANDIDATE_SET_TYPE = ALPHA
# DISTANCE =
DEPOT = 1
# EDGE_FILE =
EXCESS = 0.00552486
EXTERNAL_SALESMEN = 0
EXTRA_CANDIDATES = 0 
EXTRA_CANDIDATE_SET_TYPE = QUADRANT
GAIN23 = NO
GAIN_CRITERION = YES
INITIAL_PERIOD = 100
INITIAL_STEP_SIZE = 1
INITIAL_TOUR_ALGORITHM = WALK
# INITIAL_TOUR_FILE = 
INITIAL_TOUR_FRACTION = 1.000
# INPUT_TOUR_FILE = 
KICK_TYPE = 4
KICKS = 1
# MAX_BREADTH =
MAKESPAN = NO
MAX_CANDIDATES = 5 
MAX_SWAPS = 0
MAX_TRIALS = 10000
# MERGE_TOUR_FILE =
MOVE_TYPE = 5 SPECIAL
MTSP_MIN_SIZE = 1
MTSP_MAX_SIZE = 180
# MTSP_SOLUTION_FILE = 
# NONSEQUENTIAL_MOVE_TYPE = 5
# OPTIMUM =
OUTPUT_TOUR_FILE = baseline_results/cvrp_lkh/Vrp-Set-X-n181/Vrp-Set-X-n181-lkh/0.lkh1.tour
PATCHING_A = 1 
PATCHING_C = 0 
# PI_FILE = 
POPMUSIC_INITIAL_TOUR = NO
POPMUSIC_MAX_NEIGHBORS = 5
POPMUSIC_SAMPLE_SIZE = 10
POPMUSIC_SOLUTIONS = 50
POPMUSIC_TRIALS = 1
POPULATION_SIZE = 10
PRECISION = 100
PROBLEM_FILE = baseline_results/cvrp_lkh/Vrp-Set-X-n181/Vrp-Set-X-n181-lkh/0.lkh1.vrp
RECOMBINATION = IPT
RESTRICTED_SEARCH = YES
RUNS = 1
SALESMEN = 23
SCALE = 1
SEED = 1234
# SINTEF_SOLUTION_FILE = 
STOP_AT_OPTIMUM = YES
SUBGRADIENT = YES
# SUBPROBLEM_SIZE =
# SUBPROBLEM_TOUR_FILE = 
SUBSEQUENT_MOVE_TYPE = 5 SPECIAL
SUBSEQUENT_PATCHING = YES
# TIME_LIMIT =
# TOTAL_TIME_LIMIT =
# TOUR_FILE = 
TRACE_LEVEL = 1
VEHICLES = 23

Lower bound = 1891207.9, Ascent time = 0.05 sec.
Cand.min = 5, Cand.avg = 5.0, Cand.max = 5
Preprocessing time = 0.06 sec.
* 1: Cost = 0_2665140, Time = 0.07 sec. 
Writing OUTPUT_TOUR_FILE: "baseline_results/cvrp_lkh/Vrp-Set-X-n181/Vrp-Set-X-n181-lkh/0.lkh1.tour" ... done
* 2: Cost = 0_2663075, Time = 0.08 sec. 
Writing OUTPUT_TOUR_FILE: "baseline_results/cvrp_lkh/Vrp-Set-X-n181/Vrp-Set-X-n181-lkh/0.lkh1.tour" ... done
* 4: Cost = 0_2654504, Time = 0.09 sec. 
Writing OUTPUT_TOUR_FILE: "baseline_results/cvrp_lkh/Vrp-Set-X-n181/Vrp-Set-X-n181-lkh/0.lkh1.tour" ... done
* 6: Cost = 0_2654499, Time = 0.09 sec. 
Writing OUTPUT_TOUR_FILE: "baseline_results/cvrp_lkh/Vrp-Set-X-n181/Vrp-Set-X-n181-lkh/0.lkh1.tour" ... done
* 8: Cost = 0_2647249, Time = 0.09 sec. 
Writing OUTPUT_TOUR_FILE: "baseline_results/cvrp_lkh/Vrp-Set-X-n181/Vrp-Set-X-n181-lkh/0.lkh1.tour" ... done
* 13: Cost = 0_2643175, Time = 0.11 sec. 
Writing OUTPUT_TOUR_FILE: "baseline_results/cvrp_lkh/Vrp-Set-X-n181/Vrp-Set-X-n181-lkh/0.lkh1.tour" ... done
* 20: Cost = 0_2639573, Time = 0.12 sec. 
Writing OUTPUT_TOUR_FILE: "baseline_results/cvrp_lkh/Vrp-Set-X-n181/Vrp-Set-X-n181-lkh/0.lkh1.tour" ... done
* 22: Cost = 0_2634129, Time = 0.13 sec. 
Writing OUTPUT_TOUR_FILE: "baseline_results/cvrp_lkh/Vrp-Set-X-n181/Vrp-Set-X-n181-lkh/0.lkh1.tour" ... done
* 25: Cost = 0_2633952, Time = 0.14 sec. 
Writing OUTPUT_TOUR_FILE: "baseline_results/cvrp_lkh/Vrp-Set-X-n181/Vrp-Set-X-n181-lkh/0.lkh1.tour" ... done
* 29: Cost = 0_2633310, Time = 0.15 sec. 
Writing OUTPUT_TOUR_FILE: "baseline_results/cvrp_lkh/Vrp-Set-X-n181/Vrp-Set-X-n181-lkh/0.lkh1.tour" ... done
* 30: Cost = 0_2633262, Time = 0.15 sec. 
Writing OUTPUT_TOUR_FILE: "baseline_results/cvrp_lkh/Vrp-Set-X-n181/Vrp-Set-X-n181-lkh/0.lkh1.tour" ... done
* 38: Cost = 0_2632278, Time = 0.19 sec. 
Writing OUTPUT_TOUR_FILE: "baseline_results/cvrp_lkh/Vrp-Set-X-n181/Vrp-Set-X-n181-lkh/0.lkh1.tour" ... done
* 50: Cost = 0_2631431, Time = 0.22 sec. 
Writing OUTPUT_TOUR_FILE: "baseline_results/cvrp_lkh/Vrp-Set-X-n181/Vrp-Set-X-n181-lkh/0.lkh1.tour" ... done
* 53: Cost = 0_2613973, Time = 0.24 sec. 
Writing OUTPUT_TOUR_FILE: "baseline_results/cvrp_lkh/Vrp-Set-X-n181/Vrp-Set-X-n181-lkh/0.lkh1.tour" ... done
* 61: Cost = 0_2610879, Time = 0.25 sec. 
Writing OUTPUT_TOUR_FILE: "baseline_results/cvrp_lkh/Vrp-Set-X-n181/Vrp-Set-X-n181-lkh/0.lkh1.tour" ... done
* 63: Cost = 0_2610422, Time = 0.26 sec. 
Writing OUTPUT_TOUR_FILE: "baseline_results/cvrp_lkh/Vrp-Set-X-n181/Vrp-Set-X-n181-lkh/0.lkh1.tour" ... done
* 64: Cost = 0_2608558, Time = 0.26 sec. 
Writing OUTPUT_TOUR_FILE: "baseline_results/cvrp_lkh/Vrp-Set-X-n181/Vrp-Set-X-n181-lkh/0.lkh1.tour" ... done
* 67: Cost = 0_2600434, Time = 0.27 sec. 
Writing OUTPUT_TOUR_FILE: "baseline_results/cvrp_lkh/Vrp-Set-X-n181/Vrp-Set-X-n181-lkh/0.lkh1.tour" ... done
* 71: Cost = 0_2599952, Time = 0.27 sec. 
Writing OUTPUT_TOUR_FILE: "baseline_results/cvrp_lkh/Vrp-Set-X-n181/Vrp-Set-X-n181-lkh/0.lkh1.tour" ... done
* 75: Cost = 0_2599469, Time = 0.31 sec. 
Writing OUTPUT_TOUR_FILE: "baseline_results/cvrp_lkh/Vrp-Set-X-n181/Vrp-Set-X-n181-lkh/0.lkh1.tour" ... done
* 90: Cost = 0_2595034, Time = 0.38 sec. 
Writing OUTPUT_TOUR_FILE: "baseline_results/cvrp_lkh/Vrp-Set-X-n181/Vrp-Set-X-n181-lkh/0.lkh1.tour" ... done
* 94: Cost = 0_2594605, Time = 0.40 sec. 
Writing OUTPUT_TOUR_FILE: "baseline_results/cvrp_lkh/Vrp-Set-X-n181/Vrp-Set-X-n181-lkh/0.lkh1.tour" ... done
* 99: Cost = 0_2594475, Time = 0.42 sec. 
Writing OUTPUT_TOUR_FILE: "baseline_results/cvrp_lkh/Vrp-Set-X-n181/Vrp-Set-X-n181-lkh/0.lkh1.tour" ... done
* 100: Cost = 0_2594173, Time = 0.42 sec. 
Writing OUTPUT_TOUR_FILE: "baseline_results/cvrp_lkh/Vrp-Set-X-n181/Vrp-Set-X-n181-lkh/0.lkh1.tour" ... done
* 102: Cost = 0_2592152, Time = 0.43 sec. 
Writing OUTPUT_TOUR_FILE: "baseline_results/cvrp_lkh/Vrp-Set-X-n181/Vrp-Set-X-n181-lkh/0.lkh1.tour" ... done
* 127: Cost = 0_2591261, Time = 0.55 sec. 
Writing OUTPUT_TOUR_FILE: "baseline_results/cvrp_lkh/Vrp-Set-X-n181/Vrp-Set-X-n181-lkh/0.lkh1.tour" ... done
* 152: Cost = 0_2591159, Time = 0.67 sec. 
Writing OUTPUT_TOUR_FILE: "baseline_results/cvrp_lkh/Vrp-Set-X-n181/Vrp-Set-X-n181-lkh/0.lkh1.tour" ... done
* 155: Cost = 0_2590584, Time = 0.68 sec. 
Writing OUTPUT_TOUR_FILE: "baseline_results/cvrp_lkh/Vrp-Set-X-n181/Vrp-Set-X-n181-lkh/0.lkh1.tour" ... done
* 160: Cost = 0_2589351, Time = 0.72 sec. 
Writing OUTPUT_TOUR_FILE: "baseline_results/cvrp_lkh/Vrp-Set-X-n181/Vrp-Set-X-n181-lkh/0.lkh1.tour" ... done
* 216: Cost = 0_2589033, Time = 0.98 sec. 
Writing OUTPUT_TOUR_FILE: "baseline_results/cvrp_lkh/Vrp-Set-X-n181/Vrp-Set-X-n181-lkh/0.lkh1.tour" ... done
* 239: Cost = 0_2588906, Time = 1.11 sec. 
Writing OUTPUT_TOUR_FILE: "baseline_results/cvrp_lkh/Vrp-Set-X-n181/Vrp-Set-X-n181-lkh/0.lkh1.tour" ... done
* 360: Cost = 0_2587706, Time = 1.59 sec. 
Writing OUTPUT_TOUR_FILE: "baseline_results/cvrp_lkh/Vrp-Set-X-n181/Vrp-Set-X-n181-lkh/0.lkh1.tour" ... done
* 361: Cost = 0_2585759, Time = 1.60 sec. 
Writing OUTPUT_TOUR_FILE: "baseline_results/cvrp_lkh/Vrp-Set-X-n181/Vrp-Set-X-n181-lkh/0.lkh1.tour" ... done
* 363: Cost = 0_2585465, Time = 1.62 sec. 
Writing OUTPUT_TOUR_FILE: "baseline_results/cvrp_lkh/Vrp-Set-X-n181/Vrp-Set-X-n181-lkh/0.lkh1.tour" ... done
* 368: Cost = 0_2584993, Time = 1.65 sec. 
Writing OUTPUT_TOUR_FILE: "baseline_results/cvrp_lkh/Vrp-Set-X-n181/Vrp-Set-X-n181-lkh/0.lkh1.tour" ... done
* 373: Cost = 0_2584047, Time = 1.68 sec. 
Writing OUTPUT_TOUR_FILE: "baseline_results/cvrp_lkh/Vrp-Set-X-n181/Vrp-Set-X-n181-lkh/0.lkh1.tour" ... done
* 396: Cost = 0_2583835, Time = 1.78 sec. 
Writing OUTPUT_TOUR_FILE: "baseline_results/cvrp_lkh/Vrp-Set-X-n181/Vrp-Set-X-n181-lkh/0.lkh1.tour" ... done
* 406: Cost = 0_2583103, Time = 1.83 sec. 
Writing OUTPUT_TOUR_FILE: "baseline_results/cvrp_lkh/Vrp-Set-X-n181/Vrp-Set-X-n181-lkh/0.lkh1.tour" ... done
* 442: Cost = 0_2583090, Time = 2.04 sec. 
Writing OUTPUT_TOUR_FILE: "baseline_results/cvrp_lkh/Vrp-Set-X-n181/Vrp-Set-X-n181-lkh/0.lkh1.tour" ... done
* 445: Cost = 0_2582797, Time = 2.08 sec. 
Writing OUTPUT_TOUR_FILE: "baseline_results/cvrp_lkh/Vrp-Set-X-n181/Vrp-Set-X-n181-lkh/0.lkh1.tour" ... done
* 452: Cost = 0_2582461, Time = 2.11 sec. 
Writing OUTPUT_TOUR_FILE: "baseline_results/cvrp_lkh/Vrp-Set-X-n181/Vrp-Set-X-n181-lkh/0.lkh1.tour" ... done
* 457: Cost = 0_2581748, Time = 2.15 sec. 
Writing OUTPUT_TOUR_FILE: "baseline_results/cvrp_lkh/Vrp-Set-X-n181/Vrp-Set-X-n181-lkh/0.lkh1.tour" ... done
* 464: Cost = 0_2581188, Time = 2.18 sec. 
Writing OUTPUT_TOUR_FILE: "baseline_results/cvrp_lkh/Vrp-Set-X-n181/Vrp-Set-X-n181-lkh/0.lkh1.tour" ... done
* 466: Cost = 0_2579472, Time = 2.20 sec. 
Writing OUTPUT_TOUR_FILE: "baseline_results/cvrp_lkh/Vrp-Set-X-n181/Vrp-Set-X-n181-lkh/0.lkh1.tour" ... done
* 483: Cost = 0_2576424, Time = 2.29 sec. 
Writing OUTPUT_TOUR_FILE: "baseline_results/cvrp_lkh/Vrp-Set-X-n181/Vrp-Set-X-n181-lkh/0.lkh1.tour" ... done
* 715: Cost = 0_2575968, Time = 3.39 sec. 
Writing OUTPUT_TOUR_FILE: "baseline_results/cvrp_lkh/Vrp-Set-X-n181/Vrp-Set-X-n181-lkh/0.lkh1.tour" ... done
* 896: Cost = 0_2575951, Time = 4.33 sec. 
Writing OUTPUT_TOUR_FILE: "baseline_results/cvrp_lkh/Vrp-Set-X-n181/Vrp-Set-X-n181-lkh/0.lkh1.tour" ... done
* 1078: Cost = 0_2575875, Time = 5.12 sec. 
Writing OUTPUT_TOUR_FILE: "baseline_results/cvrp_lkh/Vrp-Set-X-n181/Vrp-Set-X-n181-lkh/0.lkh1.tour" ... done
* 1079: Cost = 0_2574357, Time = 5.12 sec. 
Writing OUTPUT_TOUR_FILE: "baseline_results/cvrp_lkh/Vrp-Set-X-n181/Vrp-Set-X-n181-lkh/0.lkh1.tour" ... done
* 1085: Cost = 0_2569564, Time = 5.16 sec. 
Writing OUTPUT_TOUR_FILE: "baseline_results/cvrp_lkh/Vrp-Set-X-n181/Vrp-Set-X-n181-lkh/0.lkh1.tour" ... done
* 1098: Cost = 0_2567768, Time = 5.25 sec. 
Writing OUTPUT_TOUR_FILE: "baseline_results/cvrp_lkh/Vrp-Set-X-n181/Vrp-Set-X-n181-lkh/0.lkh1.tour" ... done
Population:
  1: 0_2567768
Run 1: Cost = 0_2567768, Time = 47.40 sec. 

Successes/Runs = 0/1 
Cost.min = 2567768, Cost.avg = 2567768.00, Cost.max = 2567768
Gap.min = 0.0000%, Gap.avg = 0.0000%, Gap.max = 0.0000%
Penalty.min = 0, Penalty.avg = 0.00, Penalty.max = 0
Trials.min = 10000, Trials.avg = 10000.0, Trials.max = 10000
Time.min = 47.40 sec., Time.avg = 47.40 sec., Time.max = 47.40 sec.
Time.total = 47.46 sec.
  Size.min = 6, Size.max = 8, Penalty = 0
  Cost.min = 76025, Cost.max = 163572, Cost.sum = 2567768
Best CVRP solution:
  Cost = 0_2567768

