experiment/data/lkh-res/Vrp-Set-X-n181/Vrp-Set-X-n181-lkh/0.lkh1.tour
NAME : 0.2567768.tour
COMMENT : Length = 2567768
COMMENT : Found by LKH-3 [Keld Helsgaun] Tue Apr  9 03:43:22 2024
TYPE : TOUR
DIMENSION : 203
TOUR_SECTION
1
43
85
117
93
132
170
66
33
201
105
166
145
125
177
99
74
68
200
15
37
159
80
31
10
129
61
193
18
56
24
72
25
180
116
139
194
142
100
57
101
70
29
120
174
199
136
63
122
77
19
71
13
109
202
6
106
65
87
55
112
44
11
186
32
76
114
176
111
163
169
23
198
119
35
98
151
41
178
157
179
196
82
2
17
51
95
147
167
83
187
144
48
158
123
28
30
52
53
191
115
131
89
162
110
69
20
143
182
9
160
172
97
81
59
22
103
183
79
94
4
21
108
138
50
12
197
127
7
49
175
124
156
171
46
203
40
168
88
148
38
165
16
128
192
34
135
84
126
104
75
47
154
189
3
90
86
64
141
62
45
133
195
150
27
91
164
96
153
184
149
113
60
140
121
102
190
58
118
36
5
54
152
8
92
188
42
73
26
67
173
155
161
107
185
181
134
39
130
137
78
14
146
-1
EOF
